%BLOCK LATTICE_ABC
1	1	1
90	90	90
%ENDBLOCK LATTICE_ABC

%BLOCK POSITIONS_FRAC
O 0	0	0
%ENDBLOCK POSITIONS_FRAC

%BLOCK SPECIES_POT
O 2|1.0|1.3|0.7|13|16|18|20:21(qc=7)[]
%ENDBLOCK SPECIES_POT