%BLOCK LATTICE_ABC
1	1	1
90	90	90
%ENDBLOCK LATTICE_ABC

%BLOCK POSITIONS_FRAC
C 0	0	0
%ENDBLOCK POSITIONS_FRAC

%BLOCK SPECIES_POT
C 2|1.4|1.4|1.3|6|10|12|20:21(qc=6)[]
%ENDBLOCK SPECIES_POT