%BLOCK LATTICE_ABC
1	1	1
90	90	90
%ENDBLOCK LATTICE_ABC

%BLOCK POSITIONS_FRAC
<positions_block>
%ENDBLOCK POSITIONS_FRAC

%BLOCK SPECIES_POT
<potentials_block>
%ENDBLOCK SPECIES_POT