%BLOCK LATTICE_ABC
1	1	1
90	90	90
%ENDBLOCK LATTICE_ABC

%BLOCK POSITIONS_FRAC
<symbol> 0	0	0
%ENDBLOCK POSITIONS_FRAC

%BLOCK SPECIES_POT
<symbol> <pspot_string>[]
%ENDBLOCK SPECIES_POT