%BLOCK LATTICE_ABC
1	1	1
90	90	90
%ENDBLOCK LATTICE_ABC

%BLOCK POSITIONS_FRAC
H 0	0	0
%ENDBLOCK POSITIONS_FRAC

%BLOCK SPECIES_POT
H 1|0.8|0.8|0.6|2|6|8|10(qc=6)[]
%ENDBLOCK SPECIES_POT